% Logging successfully configured
%%%mzn-stat: initTime=0.034143581
%%%mzn-stat: objective=763
%%%mzn-stat: nodes=2331
%%%mzn-stat: restarts=0
%%%mzn-stat: peakDepth=784
%%%mzn-stat: solveTime=0.151324033
%%%mzn-stat: variables=1334
%%%mzn-stat: propagators=5963
%%%mzn-stat: failures=602
%%%mzn-stat: propagations=593922
%%%mzn-stat: nogoods=602
%%%mzn-stat: numAtomicConstraintsPropagated=0
%%%mzn-stat: circuitNumber4951PropagationsThatFoundConflict=104
%%%mzn-stat: circuitNumber4951TotalFixedEdgesAtConflict=9137
%%%mzn-stat: circuitNumber4951NumberOfConflicts=104
%%%mzn-stat: circuitNumber4951PropagationsThatPruned=487
%%%mzn-stat: circuitNumber4951PropagationsTotal=2031
%%%mzn-stat: AverageConflictSize=8.993355481727574
%%%mzn-stat: NumUnitNogoodsLearned=0
%%%mzn-stat: AverageLearnedNogoodLength=26.39202657807309
%%%mzn-stat: AverageBacktrackAmount=0
%%%mzn-stat: AverageLbd=14.885382059800664
%%%mzn-stat: 2AutonomousSearchNumBackupCalled=719
%%%mzn-stat: 2AutonomousSearchNumPredicatesRemoved=0
%%%mzn-stat: 2AutonomousSearchNumCalls=720
%%%mzn-stat: 2AutonomousSearchNumPredicatesAdded=5127
%%%mzn-stat: 2AutonomousSearchAverageSizeOfHeap=7.120833333333334
%%%mzn-stat: 2AutonomousSearchNumAssignedPredicatesEncountered=5127
%%%mzn-stat-end
maxleg = 763;
succ = array1d(1..100,[18, 5, 7, 11, 27, 42, 21, 10, 30, 14, 13, 17, 23, 37, 24, 22, 28, 15, 40, 25, 44, 39, 48, 35, 31, 49, 1, 32, 2, 3, 46, 53, 52, 29, 38, 58, 68, 47, 55, 41, 9, 73, 6, 50, 16, 66, 57, 74, 8, 43, 56, 69, 54, 91, 90, 59, 61, 12, 65, 4, 82, 89, 94, 75, 70, 78, 63, 87, 95, 72, 83, 96, 98, 93, 34, 33, 26, 79, 99, 84, 62, 20, 60, 71, 88, 19, 67, 64, 86, 97, 81, 45, 36, 51, 80, 76, 77, 100, 92, 85]);
% time elapsed: 5.38 s
----------
%%%mzn-stat: initTime=0.034143581
%%%mzn-stat: objective=565
%%%mzn-stat: nodes=3169
%%%mzn-stat: restarts=0
%%%mzn-stat: peakDepth=784
%%%mzn-stat: solveTime=0.181048265
%%%mzn-stat: variables=1334
%%%mzn-stat: propagators=5963
%%%mzn-stat: failures=644
%%%mzn-stat: propagations=636336
%%%mzn-stat: nogoods=644
%%%mzn-stat: numAtomicConstraintsPropagated=0
%%%mzn-stat: circuitNumber4951PropagationsThatFoundConflict=134
%%%mzn-stat: circuitNumber4951TotalFixedEdgesAtConflict=11979
%%%mzn-stat: circuitNumber4951NumberOfConflicts=134
%%%mzn-stat: circuitNumber4951PropagationsThatPruned=528
%%%mzn-stat: circuitNumber4951PropagationsTotal=2247
%%%mzn-stat: AverageConflictSize=12.563664596273291
%%%mzn-stat: NumUnitNogoodsLearned=0
%%%mzn-stat: AverageLearnedNogoodLength=28.295031055900623
%%%mzn-stat: AverageBacktrackAmount=0
%%%mzn-stat: AverageLbd=17.045031055900623
%%%mzn-stat: 2AutonomousSearchNumBackupCalled=1408
%%%mzn-stat: 2AutonomousSearchNumPredicatesRemoved=0
%%%mzn-stat: 2AutonomousSearchNumCalls=1410
%%%mzn-stat: 2AutonomousSearchNumPredicatesAdded=6701
%%%mzn-stat: 2AutonomousSearchAverageSizeOfHeap=7.273049645390071
%%%mzn-stat: 2AutonomousSearchNumAssignedPredicatesEncountered=10255
%%%mzn-stat-end
maxleg = 565;
succ = array1d(1..100,[18, 5, 7, 11, 27, 42, 21, 10, 30, 14, 13, 17, 23, 37, 24, 22, 28, 15, 40, 25, 44, 39, 48, 35, 31, 49, 1, 32, 2, 3, 46, 53, 52, 29, 38, 58, 68, 47, 55, 41, 9, 73, 6, 50, 16, 66, 57, 74, 8, 43, 56, 69, 54, 91, 90, 59, 61, 12, 65, 71, 82, 89, 94, 75, 70, 67, 78, 87, 95, 72, 84, 96, 98, 93, 34, 33, 45, 99, 63, 26, 62, 86, 60, 80, 88, 83, 20, 64, 19, 97, 81, 77, 36, 51, 4, 76, 79, 100, 92, 85]);
% time elapsed: 5.41 s
----------
%%%mzn-stat: initTime=0.034143581
%%%mzn-stat: objective=243
%%%mzn-stat: nodes=3934
%%%mzn-stat: restarts=0
%%%mzn-stat: peakDepth=784
%%%mzn-stat: solveTime=0.184212071
%%%mzn-stat: variables=1334
%%%mzn-stat: propagators=5963
%%%mzn-stat: failures=644
%%%mzn-stat: propagations=647947
%%%mzn-stat: nogoods=644
%%%mzn-stat: numAtomicConstraintsPropagated=0
%%%mzn-stat: circuitNumber4951PropagationsThatFoundConflict=134
%%%mzn-stat: circuitNumber4951TotalFixedEdgesAtConflict=11979
%%%mzn-stat: circuitNumber4951NumberOfConflicts=134
%%%mzn-stat: circuitNumber4951PropagationsThatPruned=534
%%%mzn-stat: circuitNumber4951PropagationsTotal=2319
%%%mzn-stat: AverageConflictSize=12.563664596273291
%%%mzn-stat: NumUnitNogoodsLearned=0
%%%mzn-stat: AverageLearnedNogoodLength=28.295031055900623
%%%mzn-stat: AverageBacktrackAmount=0
%%%mzn-stat: AverageLbd=17.045031055900623
%%%mzn-stat: 2AutonomousSearchNumBackupCalled=2107
%%%mzn-stat: 2AutonomousSearchNumPredicatesRemoved=0
%%%mzn-stat: 2AutonomousSearchNumCalls=2110
%%%mzn-stat: 2AutonomousSearchNumPredicatesAdded=6701
%%%mzn-stat: 2AutonomousSearchAverageSizeOfHeap=7.290521327014218
%%%mzn-stat: 2AutonomousSearchNumAssignedPredicatesEncountered=15383
%%%mzn-stat-end
maxleg = 243;
succ = array1d(1..100,[18, 5, 7, 11, 27, 42, 21, 10, 30, 14, 13, 17, 23, 37, 24, 22, 28, 15, 40, 25, 44, 39, 48, 35, 31, 49, 1, 32, 2, 3, 46, 53, 52, 29, 38, 58, 68, 47, 55, 41, 9, 73, 6, 50, 16, 66, 57, 74, 8, 43, 56, 69, 54, 91, 90, 59, 61, 51, 65, 4, 82, 89, 26, 75, 70, 67, 78, 87, 95, 72, 84, 96, 98, 93, 34, 33, 12, 79, 99, 94, 62, 86, 71, 60, 88, 83, 20, 64, 19, 97, 81, 45, 36, 63, 80, 76, 77, 100, 92, 85]);
% time elapsed: 5.42 s
----------
%%%mzn-stat: initTime=0.034143581
%%%mzn-stat: objective=240
%%%mzn-stat: nodes=5087
%%%mzn-stat: restarts=0
%%%mzn-stat: peakDepth=784
%%%mzn-stat: solveTime=0.223007713
%%%mzn-stat: variables=1334
%%%mzn-stat: propagators=5963
%%%mzn-stat: failures=780
%%%mzn-stat: propagations=807486
%%%mzn-stat: nogoods=780
%%%mzn-stat: numAtomicConstraintsPropagated=0
%%%mzn-stat: circuitNumber4951PropagationsThatFoundConflict=143
%%%mzn-stat: circuitNumber4951TotalFixedEdgesAtConflict=12778
%%%mzn-stat: circuitNumber4951NumberOfConflicts=143
%%%mzn-stat: circuitNumber4951PropagationsThatPruned=765
%%%mzn-stat: circuitNumber4951PropagationsTotal=3006
%%%mzn-stat: AverageConflictSize=11.242307692307692
%%%mzn-stat: NumUnitNogoodsLearned=0
%%%mzn-stat: AverageLearnedNogoodLength=26.874358974358973
%%%mzn-stat: AverageBacktrackAmount=0
%%%mzn-stat: AverageLbd=15.735897435897435
%%%mzn-stat: 2AutonomousSearchNumBackupCalled=2798
%%%mzn-stat: 2AutonomousSearchNumPredicatesRemoved=0
%%%mzn-stat: 2AutonomousSearchNumCalls=2802
%%%mzn-stat: 2AutonomousSearchNumPredicatesAdded=9507
%%%mzn-stat: 2AutonomousSearchAverageSizeOfHeap=7.380085653104925
%%%mzn-stat: 2AutonomousSearchNumAssignedPredicatesEncountered=20679
%%%mzn-stat-end
maxleg = 240;
succ = array1d(1..100,[18, 5, 7, 11, 27, 42, 21, 10, 30, 14, 13, 17, 23, 37, 24, 22, 28, 15, 40, 25, 44, 39, 48, 35, 31, 49, 1, 32, 2, 3, 46, 53, 52, 29, 38, 58, 68, 47, 55, 41, 9, 73, 6, 50, 16, 66, 57, 74, 8, 43, 69, 56, 54, 91, 90, 51, 61, 95, 33, 4, 82, 89, 67, 75, 59, 78, 87, 70, 94, 72, 84, 76, 98, 93, 34, 96, 12, 79, 99, 26, 62, 86, 71, 60, 88, 83, 20, 64, 19, 97, 81, 45, 36, 63, 80, 65, 77, 100, 92, 85]);
% time elapsed: 5.45 s
----------
%%%mzn-stat: initTime=0.034143581
%%%mzn-stat: objective=240
%%%mzn-stat: nodes=5086371
%%%mzn-stat: restarts=0
%%%mzn-stat: peakDepth=784
%%%mzn-stat: solveTime=1795.383489358
%%%mzn-stat: variables=1334
%%%mzn-stat: propagators=5963
%%%mzn-stat: failures=3242699
%%%mzn-stat: propagations=3416931332
%%%mzn-stat: nogoods=3242699
%%%mzn-stat: numAtomicConstraintsPropagated=0
%%%mzn-stat: circuitNumber4951PropagationsThatFoundConflict=206834
%%%mzn-stat: circuitNumber4951TotalFixedEdgesAtConflict=15661748
%%%mzn-stat: circuitNumber4951NumberOfConflicts=206834
%%%mzn-stat: circuitNumber4951PropagationsThatPruned=1722184
%%%mzn-stat: circuitNumber4951PropagationsTotal=7758707
%%%mzn-stat: AverageConflictSize=15.003349987155762
%%%mzn-stat: NumUnitNogoodsLearned=0
%%%mzn-stat: AverageLearnedNogoodLength=55.54022220378765
%%%mzn-stat: AverageBacktrackAmount=0
%%%mzn-stat: AverageLbd=27.912734422775596
%%%mzn-stat: 2AutonomousSearchNumBackupCalled=2798
%%%mzn-stat: 2AutonomousSearchNumPredicatesRemoved=0
%%%mzn-stat: 2AutonomousSearchNumCalls=2802
%%%mzn-stat: 2AutonomousSearchNumPredicatesAdded=18132
%%%mzn-stat: 2AutonomousSearchAverageSizeOfHeap=7.380085653104925
%%%mzn-stat: 2AutonomousSearchNumAssignedPredicatesEncountered=20679
%%%mzn-stat-end
